p edges 1099 1588
n 1 1e+20
n 2 2e+20
n 3 2e+20
n 4 1e+20
n 5 1e+20
n 6 2e+20
n 7 2e+20
n 8 2e+20
n 9 1e+20
n 10 1e+20
n 11 2e+20
n 12 2e+20
n 13 1e+20
n 14 1e+20
n 15 1e+20
n 16 2e+20
n 17 1e+20
n 18 1e+20
n 19 1e+20
n 20 11.6182
n 21 2e+20
n 22 1e+20
n 23 1e+20
n 24 1e+20
n 25 2e+20
n 26 2e+20
n 27 1e+20
n 28 1e+20
n 29 1e+20
n 30 2e+20
n 31 2e+20
n 32 1e+20
n 33 1e+20
n 34 1e+20
n 35 2e+20
n 36 2e+20
n 37 1e+20
n 38 1e+20
n 39 1e+20
n 40 2e+20
n 41 2e+20
n 42 1e+20
n 43 1e+20
n 44 1e+20
n 45 2e+20
n 46 2e+20
n 47 1e+20
n 48 1e+20
n 49 1e+20
n 50 2e+20
n 51 2e+20
n 52 1e+20
n 53 1e+20
n 54 1e+20
n 55 2e+20
n 56 2e+20
n 57 1e+20
n 58 1e+20
n 59 2e+20
n 60 2e+20
n 61 2e+20
n 62 1e+20
n 63 1e+20
n 64 2e+20
n 65 2e+20
n 66 1e+20
n 67 1e+20
n 68 1e+20
n 69 2e+20
n 70 2e+20
n 71 1e+20
n 72 1e+20
n 73 2e+20
n 74 2e+20
n 75 2e+20
n 76 1e+20
n 77 1e+20
n 78 2e+20
n 79 2e+20
n 80 1e+20
n 81 1e+20
n 82 1e+20
n 83 2e+20
n 84 2e+20
n 85 1e+20
n 86 1e+20
n 87 1e+20
n 88 2e+20
n 89 1e+20
n 90 1e+20
n 91 1e+20
n 92 9.80807
n 93 1e+20
n 94 1e+20
n 95 1e+20
n 96 2e+20
n 97 2e+20
n 98 1e+20
n 99 1e+20
n 100 2e+20
n 101 2e+20
n 102 1e+20
n 103 1e+20
n 104 2e+20
n 105 2e+20
n 106 1e+20
n 107 1e+20
n 108 2e+20
n 109 2e+20
n 110 2e+20
n 111 1e+20
n 112 1e+20
n 113 2e+20
n 114 2e+20
n 115 1e+20
n 116 1e+20
n 117 1e+20
n 118 10.8197
n 119 2e+20
n 120 1e+20
n 121 1e+20
n 122 1e+20
n 123 2e+20
n 124 2e+20
n 125 1e+20
n 126 1e+20
n 127 2e+20
n 128 2e+20
n 129 1e+20
n 130 1e+20
n 131 2e+20
n 132 1e+20
n 133 1e+20
n 134 1e+20
n 135 2e+20
n 136 1e+20
n 137 1e+20
n 138 1e+20
n 139 2e+20
n 140 2e+20
n 141 1e+20
n 142 1e+20
n 143 1e+20
n 144 2e+20
n 145 2e+20
n 146 1e+20
n 147 1e+20
n 148 1e+20
n 149 2e+20
n 150 2e+20
n 151 1e+20
n 152 1e+20
n 153 2e+20
n 154 2e+20
n 155 2e+20
n 156 1e+20
n 157 1e+20
n 158 2e+20
n 159 1e+20
n 160 1e+20
n 161 1e+20
n 162 2e+20
n 163 2e+20
n 164 1e+20
n 165 1e+20
n 166 1e+20
n 167 2e+20
n 168 2e+20
n 169 1e+20
n 170 1e+20
n 171 2e+20
n 172 2e+20
n 173 1e+20
n 174 1e+20
n 175 2e+20
n 176 2e+20
n 177 1e+20
n 178 1e+20
n 179 3e+20
n 180 10.4143
n 181 1e+20
n 182 1e+20
n 183 2e+20
n 184 1e+20
n 185 1e+20
n 186 2e+20
n 187 1e+20
n 188 1e+20
n 189 1e+20
n 190 2e+20
n 191 2e+20
n 192 1e+20
n 193 1e+20
n 194 1e+20
n 195 1e+20
n 196 1e+20
n 197 1e+20
n 198 2e+20
n 199 2e+20
n 200 1e+20
n 201 1e+20
n 202 1e+20
n 203 2e+20
n 204 2e+20
n 205 1e+20
n 206 1e+20
n 207 1e+20
n 208 2e+20
n 209 1e+20
n 210 1e+20
n 211 2e+20
n 212 2e+20
n 213 2e+20
n 214 1e+20
n 215 1e+20
n 216 2e+20
n 217 2e+20
n 218 1e+20
n 219 1e+20
n 220 1e+20
n 221 2e+20
n 222 2e+20
n 223 1e+20
n 224 1e+20
n 225 1e+20
n 226 9.43338
n 227 2e+20
n 228 1e+20
n 229 1e+20
n 230 3e+20
n 231 2e+20
n 232 1e+20
n 233 1e+20
n 234 2e+20
n 235 1e+20
n 236 1e+20
n 237 2e+20
n 238 2e+20
n 239 1e+20
n 240 1e+20
n 241 3e+20
n 242 1e+20
n 243 1e+20
n 244 1e+20
n 245 2e+20
n 246 1e+20
n 247 1e+20
n 248 2e+20
n 249 2e+20
n 250 1e+20
n 251 1e+20
n 252 2e+20
n 253 2e+20
n 254 2e+20
n 255 1e+20
n 256 1e+20
n 257 2e+20
n 258 2e+20
n 259 1e+20
n 260 1e+20
n 261 3e+20
n 262 2e+20
n 263 1e+20
n 264 1e+20
n 265 2e+20
n 266 1e+20
n 267 1e+20
n 268 1e+20
n 269 1e+20
n 270 1e+20
n 271 2e+20
n 272 2e+20
n 273 1e+20
n 274 1e+20
n 275 1e+20
n 276 2e+20
n 277 2e+20
n 278 1e+20
n 279 1e+20
n 280 1e+20
n 281 2e+20
n 282 1e+20
n 283 1e+20
n 284 1e+20
n 285 1e+20
n 286 2e+20
n 287 1e+20
n 288 1e+20
n 289 2e+20
n 290 2e+20
n 291 1e+20
n 292 1e+20
n 293 2e+20
n 294 1e+20
n 295 1e+20
n 296 1e+20
n 297 2e+20
n 298 1e+20
n 299 1e+20
n 300 2e+20
n 301 2e+20
n 302 1e+20
n 303 1e+20
n 304 2e+20
n 305 1e+20
n 306 1e+20
n 307 1e+20
n 308 2e+20
n 309 1e+20
n 310 1e+20
n 311 3e+20
n 312 2e+20
n 313 2e+20
n 314 2e+20
n 315 2e+20
n 316 1e+20
n 317 2e+20
n 318 2e+20
n 319 1e+20
n 320 1e+20
n 321 1e+20
n 322 2e+20
n 323 2e+20
n 324 1e+20
n 325 1e+20
n 326 1e+20
n 327 2e+20
n 328 1e+20
n 329 1e+20
n 330 1e+20
n 331 2e+20
n 332 1e+20
n 333 1e+20
n 334 1e+20
n 335 2e+20
n 336 1e+20
n 337 1e+20
n 338 1e+20
n 339 2e+20
n 340 1e+20
n 341 1e+20
n 342 1e+20
n 343 2e+20
n 344 1e+20
n 345 1e+20
n 346 1e+20
n 347 2e+20
n 348 1e+20
n 349 1e+20
n 350 1e+20
n 351 1e+20
n 352 1e+20
n 353 1e+20
n 354 2e+20
n 355 1e+20
n 356 1e+20
n 357 2e+20
n 358 2e+20
n 359 2e+20
n 360 1e+20
n 361 1e+20
n 362 2e+20
n 363 2e+20
n 364 1e+20
n 365 1e+20
n 366 1e+20
n 367 2e+20
n 368 1e+20
n 369 1e+20
n 370 1e+20
n 371 2e+20
n 372 1e+20
n 373 1e+20
n 374 1e+20
n 375 2e+20
n 376 2e+20
n 377 1e+20
n 378 1e+20
n 379 1e+20
n 380 2e+20
n 381 2e+20
n 382 1e+20
n 383 1e+20
n 384 1e+20
n 385 2e+20
n 386 1e+20
n 387 1e+20
n 388 2e+20
n 389 1e+20
n 390 1e+20
n 391 1e+20
n 392 1e+20
n 393 1e+20
n 394 2e+20
n 395 1e+20
n 396 1e+20
n 397 1e+20
n 398 1e+20
n 399 1e+20
n 400 1e+20
n 401 2e+20
n 402 1e+20
n 403 1e+20
n 404 1e+20
n 405 2e+20
n 406 1e+20
n 407 1e+20
n 408 2e+20
n 409 2e+20
n 410 1e+20
n 411 1e+20
n 412 2e+20
n 413 1e+20
n 414 1e+20
n 415 1e+20
n 416 1e+20
n 417 2e+20
n 418 2e+20
n 419 1e+20
n 420 1e+20
n 421 2e+20
n 422 1e+20
n 423 1e+20
n 424 2e+20
n 425 1e+20
n 426 1e+20
n 427 2e+20
n 428 1e+20
n 429 1e+20
n 430 1e+20
n 431 2e+20
n 432 1e+20
n 433 1e+20
n 434 3e+20
n 435 2e+20
n 436 2e+20
n 437 2e+20
n 438 1e+20
n 439 2e+20
n 440 1e+20
n 441 1e+20
n 442 1e+20
n 443 1e+20
n 444 1e+20
n 445 2e+20
n 446 1e+20
n 447 1e+20
n 448 1e+20
n 449 1e+20
n 450 1e+20
n 451 2e+20
n 452 1e+20
n 453 1e+20
n 454 2e+20
n 455 1e+20
n 456 1e+20
n 457 2e+20
n 458 1e+20
n 459 1e+20
n 460 1e+20
n 461 2e+20
n 462 1e+20
n 463 1e+20
n 464 1e+20
n 465 2e+20
n 466 2e+20
n 467 1e+20
n 468 1e+20
n 469 1e+20
n 470 1e+20
n 471 1e+20
n 472 1e+20
n 473 1e+20
n 474 1e+20
n 475 1e+20
n 476 2e+20
n 477 1e+20
n 478 1e+20
n 479 1e+20
n 480 2e+20
n 481 1e+20
n 482 1e+20
n 483 3e+20
n 484 2e+20
n 485 1e+20
n 486 1e+20
n 487 2e+20
n 488 1e+20
n 489 1e+20
n 490 2e+20
n 491 1e+20
n 492 1e+20
n 493 1e+20
n 494 10.7893
n 495 1e+20
n 496 1e+20
n 497 1e+20
n 498 2e+20
n 499 1e+20
n 500 1e+20
n 501 1e+20
n 502 1e+20
n 503 1e+20
n 504 1e+20
n 505 1e+20
n 506 1e+20
n 507 2e+20
n 508 2e+20
n 509 1e+20
n 510 1e+20
n 511 2e+20
n 512 1e+20
n 513 1e+20
n 514 2e+20
n 515 1e+20
n 516 1e+20
n 517 1e+20
n 518 1e+20
n 519 1e+20
n 520 1e+20
n 521 1e+20
n 522 1e+20
n 523 1e+20
n 524 1e+20
n 525 1e+20
n 526 1e+20
n 527 1e+20
n 528 1e+20
n 529 2e+20
n 530 1e+20
n 531 1e+20
n 532 1e+20
n 533 2e+20
n 534 1e+20
n 535 1e+20
n 536 1e+20
n 537 1e+20
n 538 1e+20
n 539 1e+20
n 540 1e+20
n 541 1e+20
n 542 1e+20
n 543 1e+20
n 544 1e+20
n 545 1e+20
n 546 1e+20
n 547 1e+20
n 548 1e+20
n 549 1e+20
n 550 1e+20
n 551 1e+20
n 552 2e+20
n 553 1e+20
n 554 1e+20
n 555 1e+20
n 556 1e+20
n 557 1e+20
n 558 2e+20
n 559 2e+20
n 560 1e+20
n 561 1e+20
n 562 2e+20
n 563 1e+20
n 564 1e+20
n 565 1e+20
n 566 1e+20
n 567 1e+20
n 568 1e+20
n 569 1e+20
n 570 1e+20
n 571 1e+20
n 572 1e+20
n 573 1e+20
n 574 1e+20
n 575 1e+20
n 576 1e+20
n 577 1e+20
n 578 1e+20
n 579 1e+20
n 580 1e+20
n 581 1e+20
n 582 1e+20
n 583 2e+20
n 584 1e+20
n 585 1e+20
n 586 1e+20
n 587 1e+20
n 588 1e+20
n 589 1e+20
n 590 1e+20
n 591 3e+20
n 592 1e+20
n 593 1e+20
n 594 1e+20
n 595 1e+20
n 596 1e+20
n 597 1e+20
n 598 1e+20
n 599 1e+20
n 600 1e+20
n 601 1e+20
n 602 1e+20
n 603 1e+20
n 604 1e+20
n 605 1e+20
n 606 1e+20
n 607 1e+20
n 608 1e+20
n 609 1e+20
n 610 1e+20
n 611 1e+20
n 612 1e+20
n 613 0.510826
n 614 1e+20
n 615 0.510826
n 616 1e+20
n 617 0.693147
n 618 1e+20
n 619 2.30259
n 620 1e+20
n 621 1e+20
n 622 0.105361
n 623 1e+20
n 624 1.20397
n 625 1e+20
n 626 0.693147
n 627 1e+20
n 628 0.116534
n 629 1e+20
n 630 0.916291
n 631 1e+20
n 632 0.105361
n 633 1e+20
n 634 2.40795
n 635 1e+20
n 636 2.30259
n 637 1e+20
n 638 2.30259
n 639 1e+20
n 640 0.693147
n 641 1e+20
n 642 0.105361
n 643 1e+20
n 644 0.116534
n 645 1e+20
n 646 1.20397
n 647 1e+20
n 648 1e+20
n 649 2e+20
n 650 1e+20
n 651 0.693147
n 652 1e+20
n 653 1e+20
n 654 0.693147
n 655 1e+20
n 656 0.105361
n 657 1e+20
n 658 0.693147
n 659 1e+20
n 660 0.693147
n 661 1e+20
n 662 0.693147
n 663 1e+20
n 664 1e+20
n 665 0.116534
n 666 1e+20
n 667 0.693147
n 668 1e+20
n 669 2.40795
n 670 1e+20
n 671 0.693147
n 672 1e+20
n 673 2.30259
n 674 1e+20
n 675 4.60517
n 676 1e+20
n 677 0.105361
n 678 1e+20
n 679 0.693147
n 680 1e+20
n 681 0.693147
n 682 3.4761
n 683 1e+20
n 684 3.4761
n 685 1e+20
n 686 1e+20
n 687 0.105361
n 688 1e+20
n 689 2.40795
n 690 3.4761
n 691 1e+20
n 692 1e+20
n 693 0.693147
n 694 1e+20
n 695 0.693147
n 696 1e+20
n 697 1e+20
n 698 0.693147
n 699 1e+20
n 700 0.693147
n 701 1e+20
n 702 0.105361
n 703 3.4761
n 704 1e+20
n 705 1e+20
n 706 0.287682
n 707 1e+20
n 708 0.223144
n 709 1e+20
n 710 0.510826
n 711 3.4761
n 712 4.36663
n 713 1e+20
n 714 0.116534
n 715 1e+20
n 716 0.693147
n 717 1e+20
n 718 0.693147
n 719 1e+20
n 720 4.60517
n 721 1e+20
n 722 1e+20
n 723 0.693147
n 724 1e+20
n 725 0.693147
n 726 1e+20
n 727 0.105361
n 728 1e+20
n 729 0.693147
n 730 1e+20
n 731 1e+20
n 732 0.105361
n 733 1e+20
n 734 0.693147
n 735 1e+20
n 736 0.693147
n 737 1e+20
n 738 0.693147
n 739 1e+20
n 740 0.693147
n 741 1e+20
n 742 0.105361
n 743 1e+20
n 744 2.40795
n 745 1e+20
n 746 0.116534
n 747 1e+20
n 748 0.105361
n 749 1e+20
n 750 1e+20
n 751 0.693147
n 752 1e+20
n 753 0.693147
n 754 1e+20
n 755 0.693147
n 756 1e+20
n 757 0.693147
n 758 1e+20
n 759 0.693147
n 760 1e+20
n 761 0.693147
n 762 2e+20
n 763 1e+20
n 764 1e+20
n 765 0.105361
n 766 1e+20
n 767 0.693147
n 768 3.4761
n 769 1e+20
n 770 1e+20
n 771 1.20397
n 772 1e+20
n 773 0.693147
n 774 1e+20
n 775 0.693147
n 776 1e+20
n 777 1.20397
n 778 3.4761
n 779 1e+20
n 780 1e+20
n 781 0.693147
n 782 1e+20
n 783 0.693147
n 784 1e+20
n 785 4.60517
n 786 1e+20
n 787 0.116534
n 788 1e+20
n 789 2.30259
n 790 1e+20
n 791 2.99573
n 792 1e+20
n 793 0.105361
n 794 1e+20
n 795 0.693147
n 796 1e+20
n 797 0.287682
n 798 1e+20
n 799 0.105361
n 800 1e+20
n 801 0.105361
n 802 1e+20
n 803 2.30259
n 804 1e+20
n 805 2.99573
n 806 1e+20
n 807 0.693147
n 808 1e+20
n 809 0.693147
n 810 1e+20
n 811 0.105361
n 812 1e+20
n 813 0.116534
n 814 1e+20
n 815 0.693147
n 816 1e+20
n 817 0.693147
n 818 1e+20
n 819 0.693147
n 820 1e+20
n 821 0.693147
n 822 1e+20
n 823 0.693147
n 824 1e+20
n 825 4.60517
n 826 1e+20
n 827 0.916291
n 828 1e+20
n 829 1.20397
n 830 10.1264
n 831 1e+20
n 832 1e+20
n 833 3.4761
n 834 1e+20
n 835 2e+20
n 836 1e+20
n 837 1e+20
n 838 1.20397
n 839 1e+20
n 840 0.105361
n 841 1e+20
n 842 0.693147
n 843 1e+20
n 844 0.693147
n 845 1e+20
n 846 0.693147
n 847 1e+20
n 848 0.693147
n 849 1e+20
n 850 2.30259
n 851 1e+20
n 852 2.30259
n 853 1e+20
n 854 1.20397
n 855 1e+20
n 856 0.116534
n 857 3.4761
n 858 1e+20
n 859 1e+20
n 860 0.693147
n 861 1e+20
n 862 1.20397
n 863 1e+20
n 864 0.693147
n 865 3.4761
n 866 3.53612
n 867 1e+20
n 868 0.693147
n 869 1e+20
n 870 0.693147
n 871 1e+20
n 872 0.693147
n 873 1e+20
n 874 1e+20
n 875 2.99573
n 876 1e+20
n 877 0.105361
n 878 1e+20
n 879 2.30259
n 880 1e+20
n 881 0.693147
n 882 1e+20
n 883 0.693147
n 884 1e+20
n 885 1.60944
n 886 1e+20
n 887 0.693147
n 888 1e+20
n 889 0.105361
n 890 1e+20
n 891 0.693147
n 892 1e+20
n 893 0.693147
n 894 1e+20
n 895 0.693147
n 896 1e+20
n 897 0.693147
n 898 1e+20
n 899 0.693147
n 900 1e+20
n 901 1.20397
n 902 1e+20
n 903 0.693147
n 904 1e+20
n 905 0.693147
n 906 1e+20
n 907 2.40795
n 908 1e+20
n 909 1.20397
n 910 1e+20
n 911 0.693147
n 912 1e+20
n 913 2.30259
n 914 1e+20
n 915 2.30259
n 916 1e+20
n 917 1.20397
n 918 1e+20
n 919 0.693147
n 920 1e+20
n 921 2.40795
n 922 1e+20
n 923 4.60517
n 924 1e+20
n 925 0.693147
n 926 1e+20
n 927 0.693147
n 928 1e+20
n 929 2.99573
n 930 1e+20
n 931 2.99573
n 932 1e+20
n 933 0.356675
n 934 1e+20
n 935 1.60944
n 936 1e+20
n 937 1.60944
n 938 1e+20
n 939 0.105361
n 940 1e+20
n 941 2.40795
n 942 1e+20
n 943 0.105361
n 944 1e+20
n 945 0.693147
n 946 1e+20
n 947 0.916291
n 948 1e+20
n 949 1.20397
n 950 1e+20
n 951 1e+20
n 952 1e+20
n 953 1e+20
n 954 1e+20
n 955 1e+20
n 956 1e+20
n 957 1e+20
n 958 1e+20
n 959 1e+20
n 960 1e+20
n 961 1e+20
n 962 1e+20
n 963 1e+20
n 964 1e+20
n 965 1e+20
n 966 1e+20
n 967 1e+20
n 968 1e+20
n 969 1e+20
n 970 1e+20
n 971 1e+20
n 972 1e+20
n 973 1e+20
n 974 1e+20
n 975 1e+20
n 976 1e+20
n 977 1e+20
n 978 1e+20
n 979 1e+20
n 980 1e+20
n 981 1e+20
n 982 1e+20
n 983 1e+20
n 984 1e+20
n 985 1e+20
n 986 1e+20
n 987 1e+20
n 988 1e+20
n 989 1e+20
n 990 1e+20
n 991 1e+20
n 992 1e+20
n 993 1e+20
n 994 1e+20
n 995 1e+20
n 996 1e+20
n 997 1e+20
n 998 1e+20
n 999 1e+20
n 1000 1e+20
n 1001 1e+20
n 1002 1e+20
n 1003 1e+20
n 1004 1e+20
n 1005 1e+20
n 1006 1e+20
n 1007 1e+20
n 1008 1e+20
n 1009 1e+20
n 1010 1e+20
n 1011 1e+20
n 1012 1e+20
n 1013 1e+20
n 1014 1e+20
n 1015 1e+20
n 1016 1e+20
n 1017 1e+20
n 1018 1e+20
n 1019 1e+20
n 1020 1e+20
n 1021 1e+20
n 1022 1e+20
n 1023 1e+20
n 1024 1e+20
n 1025 1e+20
n 1026 1e+20
n 1027 1e+20
n 1028 1e+20
n 1029 1e+20
n 1030 1e+20
n 1031 1e+20
n 1032 1e+20
n 1033 1e+20
n 1034 1e+20
n 1035 1e+20
n 1036 1e+20
n 1037 1e+20
n 1038 1e+20
n 1039 1e+20
n 1040 1e+20
n 1041 1e+20
n 1042 1e+20
n 1043 1e+20
n 1044 1e+20
n 1045 1e+20
n 1046 1e+20
n 1047 1e+20
n 1048 1e+20
n 1049 1e+20
n 1050 1e+20
n 1051 1e+20
n 1052 1e+20
n 1053 1e+20
n 1054 1e+20
n 1055 1e+20
n 1056 1e+20
n 1057 1e+20
n 1058 1e+20
n 1059 1e+20
n 1060 1e+20
n 1061 1e+20
n 1062 1e+20
n 1063 1e+20
n 1064 1e+20
n 1065 1e+20
n 1066 1e+20
n 1067 1e+20
n 1068 1e+20
n 1069 1e+20
n 1070 1e+20
n 1071 1e+20
n 1072 1e+20
n 1073 1e+20
n 1074 1e+20
n 1075 1e+20
n 1076 1e+20
n 1077 1e+20
n 1078 1e+20
n 1079 1e+20
n 1080 1e+20
n 1081 1e+20
n 1082 1e+20
n 1083 1e+20
n 1084 1e+20
n 1085 1e+20
n 1086 1e+20
n 1087 1e+20
n 1088 1e+20
n 1089 1e+20
n 1090 1e+20
n 1091 1e+20
n 1092 1e+20
n 1093 1e+20
n 1094 1e+20
n 1095 1e+20
n 1096 1e+20
n 1097 1e+20
n 1098 1e+20
n 1099 1e+20
e 4 5
e 5 1
e 4 2
e 4 3
e 9 10
e 10 6
e 9 7
e 9 8
e 13 14
e 14 6
e 13 11
e 13 12
e 17 18
e 18 15
e 17 8
e 17 16
e 22 23
e 23 19
e 22 20
e 22 21
e 27 28
e 28 24
e 27 25
e 27 26
e 32 33
e 33 29
e 32 30
e 32 31
e 37 38
e 38 34
e 37 35
e 37 36
e 42 43
e 43 39
e 42 40
e 42 41
e 47 48
e 48 44
e 47 45
e 47 46
e 52 53
e 53 49
e 52 50
e 52 51
e 57 58
e 58 54
e 57 55
e 57 56
e 62 63
e 63 59
e 62 60
e 62 61
e 66 67
e 67 59
e 66 64
e 66 65
e 71 72
e 72 68
e 71 69
e 71 70
e 76 77
e 77 73
e 76 74
e 76 75
e 80 81
e 81 73
e 80 78
e 80 79
e 85 86
e 86 82
e 85 83
e 85 84
e 89 90
e 90 87
e 89 3
e 89 88
e 93 94
e 94 91
e 93 92
e 93 26
e 98 99
e 99 95
e 98 96
e 98 97
e 102 103
e 103 100
e 102 101
e 102 74
e 106 107
e 107 100
e 106 104
e 106 105
e 111 112
e 112 108
e 111 109
e 111 110
e 115 116
e 116 108
e 115 113
e 115 114
e 120 121
e 121 117
e 120 118
e 120 119
e 125 126
e 126 122
e 125 123
e 125 124
e 129 130
e 130 127
e 129 128
e 129 60
e 132 133
e 133 127
e 132 131
e 132 64
e 136 137
e 137 134
e 136 135
e 136 11
e 141 142
e 142 138
e 141 139
e 141 140
e 146 147
e 147 143
e 146 144
e 146 145
e 151 152
e 152 148
e 151 149
e 151 150
e 156 157
e 157 153
e 156 154
e 156 155
e 159 160
e 160 153
e 159 65
e 159 158
e 164 165
e 165 161
e 164 162
e 164 163
e 169 170
e 170 166
e 169 167
e 169 168
e 173 174
e 174 171
e 173 16
e 173 172
e 177 178
e 178 171
e 177 175
e 177 176
e 181 182
e 182 179
e 181 180
e 181 70
e 184 185
e 185 179
e 184 51
e 184 183
e 187 188
e 188 179
e 187 105
e 187 186
e 192 193
e 193 189
e 192 190
e 192 191
e 195 196
e 196 194
e 195 61
e 195 154
e 200 201
e 201 197
e 200 198
e 200 199
e 205 206
e 206 202
e 205 203
e 205 204
e 209 210
e 210 207
e 209 168
e 209 208
e 214 215
e 215 211
e 214 212
e 214 213
e 218 219
e 219 211
e 218 216
e 218 217
e 223 224
e 224 220
e 223 221
e 223 222
e 228 229
e 229 225
e 228 226
e 228 227
e 232 233
e 233 230
e 232 222
e 232 231
e 235 236
e 236 230
e 235 217
e 235 234
e 239 240
e 240 230
e 239 237
e 239 238
e 243 244
e 244 241
e 243 242
e 243 176
e 246 247
e 247 241
e 246 172
e 246 245
e 250 251
e 251 241
e 250 248
e 250 249
e 255 256
e 256 252
e 255 253
e 255 254
e 259 260
e 260 252
e 259 257
e 259 258
e 263 264
e 264 261
e 263 262
e 263 7
e 266 267
e 267 261
e 266 265
e 266 175
e 268 269
e 269 261
e 268 75
e 268 248
e 273 274
e 274 270
e 273 271
e 273 272
e 278 279
e 279 275
e 278 276
e 278 277
e 282 283
e 283 280
e 282 281
e 282 40
e 287 288
e 288 284
e 287 285
e 287 286
e 291 292
e 292 289
e 291 290
e 291 253
e 294 295
e 295 289
e 294 293
e 294 257
e 298 299
e 299 296
e 298 297
e 298 119
e 302 303
e 303 300
e 302 301
e 302 128
e 305 306
e 306 300
e 305 304
e 305 131
e 309 310
e 310 307
e 309 308
e 309 2
e 314 315
e 315 311
e 314 312
e 314 313
e 319 320
e 320 316
e 319 317
e 319 318
e 324 325
e 325 321
e 324 322
e 324 323
e 328 329
e 329 326
e 328 327
e 328 101
e 332 333
e 333 330
e 332 145
e 332 331
e 336 337
e 337 334
e 336 335
e 336 297
e 340 341
e 341 338
e 340 150
e 340 339
e 344 345
e 345 342
e 344 343
e 344 312
e 348 349
e 349 346
e 348 97
e 348 347
e 351 352
e 352 350
e 351 204
e 351 25
e 355 356
e 356 353
e 355 354
e 355 123
e 360 361
e 361 357
e 360 358
e 360 359
e 364 365
e 365 357
e 364 362
e 364 363
e 368 369
e 369 366
e 368 347
e 368 367
e 372 373
e 373 370
e 372 371
e 372 237
e 377 378
e 378 374
e 377 375
e 377 376
e 382 383
e 383 379
e 382 380
e 382 381
e 386 387
e 387 384
e 386 385
e 386 45
e 389 390
e 390 388
e 389 110
e 389 262
e 391 392
e 392 388
e 391 114
e 391 265
e 395 396
e 396 393
e 395 394
e 395 276
e 398 399
e 399 397
e 398 84
e 398 144
e 402 403
e 403 400
e 402 401
e 402 78
e 406 407
e 407 404
e 406 405
e 406 380
e 410 411
e 411 408
e 410 409
e 410 212
e 413 414
e 414 408
e 413 412
e 413 216
e 415 416
e 416 285
e 415 140
e 415 83
e 419 420
e 420 417
e 419 41
e 419 418
e 422 423
e 423 417
e 422 421
e 422 190
e 425 426
e 426 424
e 425 88
e 425 69
e 428 429
e 429 424
e 428 163
e 428 427
e 432 433
e 433 430
e 432 183
e 432 431
e 436 437
e 437 434
e 436 435
e 436 394
e 440 441
e 441 438
e 440 231
e 440 439
e 443 444
e 444 442
e 443 376
e 443 385
e 446 447
e 447 445
e 446 155
e 446 109
e 448 449
e 449 445
e 448 158
e 448 113
e 452 453
e 453 450
e 452 451
e 452 322
e 455 456
e 456 454
e 455 277
e 455 271
e 458 459
e 459 454
e 458 381
e 458 457
e 462 463
e 463 460
e 462 461
e 462 96
e 467 468
e 468 464
e 467 465
e 467 466
e 470 471
e 471 469
e 470 323
e 470 335
e 473 474
e 474 472
e 473 367
e 473 104
e 477 478
e 478 475
e 477 476
e 477 50
e 481 482
e 482 479
e 481 124
e 481 480
e 485 486
e 486 483
e 485 484
e 485 358
e 488 489
e 489 483
e 488 487
e 488 362
e 491 492
e 492 483
e 491 431
e 491 490
e 495 496
e 496 493
e 495 494
e 495 339
e 499 500
e 500 497
e 499 498
e 499 301
e 502 503
e 503 501
e 502 466
e 502 371
e 505 506
e 506 504
e 505 418
e 505 451
e 509 510
e 510 507
e 509 508
e 509 484
e 512 513
e 513 507
e 512 511
e 512 487
e 515 516
e 516 514
e 515 254
e 515 498
e 517 518
e 518 514
e 517 258
e 517 304
e 520 521
e 521 519
e 520 46
e 520 317
e 523 524
e 524 522
e 523 272
e 523 139
e 526 527
e 527 525
e 526 480
e 526 343
e 530 531
e 531 528
e 530 529
e 530 308
e 534 535
e 535 532
e 534 533
e 534 198
e 537 538
e 538 536
e 537 331
e 537 354
e 540 541
e 541 539
e 540 427
e 540 167
e 543 544
e 544 542
e 543 249
e 543 465
e 546 547
e 547 545
e 546 457
e 546 30
e 549 550
e 550 548
e 549 12
e 549 55
e 553 554
e 554 551
e 553 490
e 553 552
e 556 557
e 557 555
e 556 36
e 556 461
e 560 561
e 561 558
e 560 559
e 560 409
e 563 564
e 564 558
e 563 562
e 563 412
e 566 567
e 567 565
e 566 238
e 566 375
e 569 570
e 570 568
e 569 191
e 569 476
e 572 573
e 573 571
e 572 199
e 572 401
e 575 576
e 576 574
e 575 56
e 575 227
e 578 579
e 579 577
e 578 313
e 578 281
e 581 582
e 582 580
e 581 186
e 581 286
e 584 585
e 585 583
e 584 439
e 584 508
e 586 587
e 587 583
e 586 234
e 586 511
e 589 590
e 590 588
e 589 318
e 589 421
e 592 593
e 593 591
e 592 359
e 592 290
e 594 595
e 595 591
e 594 363
e 594 293
e 596 597
e 597 591
e 596 31
e 596 327
e 599 600
e 600 598
e 599 79
e 599 135
e 602 603
e 603 601
e 602 208
e 602 405
e 605 606
e 606 604
e 605 213
e 605 221
e 607 608
e 608 242
e 607 245
e 607 203
e 610 611
e 611 609
e 610 552
e 610 149
e 1 612
e 2 612
e 1 613
e 3 613
e 6 614
e 7 614
e 6 615
e 8 615
e 6 616
e 11 616
e 6 617
e 12 617
e 15 618
e 8 618
e 15 619
e 16 619
e 19 620
e 21 620
e 24 621
e 25 621
e 24 622
e 26 622
e 29 623
e 30 623
e 29 624
e 31 624
e 34 625
e 35 625
e 34 626
e 36 626
e 39 627
e 40 627
e 39 628
e 41 628
e 44 629
e 45 629
e 44 630
e 46 630
e 49 631
e 50 631
e 49 632
e 51 632
e 54 633
e 55 633
e 54 634
e 56 634
e 59 635
e 60 635
e 59 636
e 61 636
e 59 637
e 64 637
e 59 638
e 65 638
e 68 639
e 69 639
e 68 640
e 70 640
e 73 641
e 74 641
e 73 642
e 75 642
e 73 643
e 78 643
e 73 644
e 79 644
e 82 645
e 83 645
e 82 646
e 84 646
e 647 649
e 648 649
e 87 650
e 3 650
e 87 651
e 88 651
e 91 652
e 26 652
e 95 653
e 96 653
e 95 654
e 97 654
e 100 655
e 101 655
e 100 656
e 74 656
e 100 657
e 104 657
e 100 658
e 105 658
e 108 659
e 109 659
e 108 660
e 110 660
e 108 661
e 113 661
e 108 662
e 114 662
e 117 663
e 119 663
e 122 664
e 123 664
e 122 665
e 124 665
e 127 666
e 128 666
e 127 667
e 60 667
e 127 668
e 131 668
e 127 669
e 64 669
e 134 670
e 135 670
e 134 671
e 11 671
e 138 672
e 139 672
e 138 673
e 140 673
e 143 674
e 144 674
e 143 675
e 145 675
e 148 676
e 149 676
e 148 677
e 150 677
e 153 678
e 154 678
e 153 679
e 155 679
e 153 680
e 65 680
e 153 681
e 158 681
e 682 683
e 533 683
e 684 685
e 529 685
e 161 686
e 162 686
e 161 687
e 163 687
e 166 688
e 167 688
e 166 689
e 168 689
e 690 691
e 435 691
e 171 692
e 16 692
e 171 693
e 172 693
e 171 694
e 175 694
e 171 695
e 176 695
e 179 696
e 70 696
e 179 697
e 51 697
e 179 698
e 183 698
e 179 699
e 105 699
e 179 700
e 186 700
e 189 701
e 190 701
e 189 702
e 191 702
e 703 704
e 162 704
e 194 705
e 61 705
e 194 706
e 154 706
e 197 707
e 198 707
e 197 708
e 199 708
e 202 709
e 203 709
e 202 710
e 204 710
e 20 712
e 711 712
e 207 713
e 168 713
e 207 714
e 208 714
e 211 715
e 212 715
e 211 716
e 213 716
e 211 717
e 216 717
e 211 718
e 217 718
e 220 719
e 221 719
e 220 720
e 222 720
e 225 721
e 227 721
e 230 722
e 222 722
e 230 723
e 231 723
e 230 724
e 217 724
e 230 725
e 234 725
e 230 726
e 237 726
e 230 727
e 238 727
e 241 728
e 172 728
e 241 729
e 245 729
e 241 730
e 176 730
e 241 731
e 248 731
e 241 732
e 249 732
e 252 733
e 253 733
e 252 734
e 254 734
e 252 735
e 257 735
e 252 736
e 258 736
e 261 737
e 262 737
e 261 738
e 7 738
e 261 739
e 265 739
e 261 740
e 175 740
e 261 741
e 75 741
e 261 742
e 248 742
e 270 743
e 271 743
e 270 744
e 272 744
e 275 745
e 276 745
e 275 746
e 277 746
e 280 747
e 281 747
e 280 748
e 40 748
e 284 749
e 286 749
e 289 750
e 290 750
e 289 751
e 253 751
e 289 752
e 293 752
e 289 753
e 257 753
e 296 754
e 297 754
e 296 755
e 119 755
e 300 756
e 301 756
e 300 757
e 128 757
e 300 758
e 304 758
e 300 759
e 131 759
e 307 760
e 308 760
e 307 761
e 2 761
e 311 762
e 312 762
e 311 763
e 313 763
e 316 764
e 317 764
e 316 765
e 318 765
e 321 766
e 322 766
e 321 767
e 323 767
e 768 769
e 559 769
e 326 770
e 327 770
e 326 771
e 101 771
e 330 772
e 145 772
e 330 773
e 331 773
e 334 774
e 335 774
e 334 775
e 297 775
e 338 776
e 150 776
e 338 777
e 339 777
e 778 779
e 562 779
e 342 780
e 343 780
e 342 781
e 312 781
e 346 782
e 97 782
e 346 783
e 347 783
e 350 784
e 204 784
e 350 785
e 25 785
e 353 786
e 354 786
e 353 787
e 123 787
e 357 788
e 358 788
e 357 789
e 359 789
e 357 790
e 362 790
e 357 791
e 363 791
e 366 792
e 347 792
e 366 793
e 367 793
e 370 794
e 371 794
e 370 795
e 237 795
e 374 796
e 375 796
e 374 797
e 376 797
e 379 798
e 380 798
e 379 799
e 381 799
e 384 800
e 385 800
e 384 801
e 45 801
e 388 802
e 110 802
e 388 803
e 262 803
e 388 804
e 114 804
e 388 805
e 265 805
e 393 806
e 394 806
e 393 807
e 276 807
e 397 808
e 84 808
e 397 809
e 144 809
e 400 810
e 401 810
e 400 811
e 78 811
e 404 812
e 405 812
e 404 813
e 380 813
e 408 814
e 409 814
e 408 815
e 212 815
e 408 816
e 412 816
e 408 817
e 216 817
e 285 818
e 140 818
e 285 819
e 83 819
e 417 820
e 41 820
e 417 821
e 418 821
e 417 822
e 421 822
e 417 823
e 190 823
e 424 824
e 88 824
e 424 825
e 69 825
e 424 826
e 163 826
e 424 827
e 427 827
e 430 828
e 183 828
e 430 829
e 431 829
e 830 832
e 831 832
e 833 834
e 35 834
e 434 835
e 435 835
e 434 836
e 394 836
e 438 837
e 231 837
e 438 838
e 439 838
e 442 839
e 376 839
e 442 840
e 385 840
e 445 841
e 155 841
e 445 842
e 109 842
e 445 843
e 158 843
e 445 844
e 113 844
e 450 845
e 451 845
e 450 846
e 322 846
e 454 847
e 277 847
e 454 848
e 271 848
e 454 849
e 381 849
e 454 850
e 457 850
e 460 851
e 461 851
e 460 852
e 96 852
e 464 853
e 465 853
e 464 854
e 466 854
e 469 855
e 323 855
e 469 856
e 335 856
e 857 858
e 21 858
e 472 859
e 367 859
e 472 860
e 104 860
e 475 861
e 476 861
e 475 862
e 50 862
e 479 863
e 124 863
e 479 864
e 480 864
e 483 866
e 865 866
e 483 867
e 484 867
e 483 868
e 358 868
e 483 869
e 487 869
e 483 870
e 362 870
e 483 871
e 431 871
e 483 872
e 490 872
e 493 873
e 339 873
e 497 874
e 498 874
e 497 875
e 301 875
e 501 876
e 466 876
e 501 877
e 371 877
e 504 878
e 418 878
e 504 879
e 451 879
e 507 880
e 508 880
e 507 881
e 484 881
e 507 882
e 511 882
e 507 883
e 487 883
e 514 884
e 254 884
e 514 885
e 498 885
e 514 886
e 258 886
e 514 887
e 304 887
e 519 888
e 46 888
e 519 889
e 317 889
e 522 890
e 272 890
e 522 891
e 139 891
e 525 892
e 480 892
e 525 893
e 343 893
e 528 894
e 529 894
e 528 895
e 308 895
e 532 896
e 533 896
e 532 897
e 198 897
e 536 898
e 331 898
e 536 899
e 354 899
e 539 900
e 427 900
e 539 901
e 167 901
e 542 902
e 249 902
e 542 903
e 465 903
e 545 904
e 457 904
e 545 905
e 30 905
e 548 906
e 12 906
e 548 907
e 55 907
e 551 908
e 490 908
e 551 909
e 552 909
e 555 910
e 36 910
e 555 911
e 461 911
e 558 912
e 559 912
e 558 913
e 409 913
e 558 914
e 562 914
e 558 915
e 412 915
e 565 916
e 238 916
e 565 917
e 375 917
e 568 918
e 191 918
e 568 919
e 476 919
e 571 920
e 199 920
e 571 921
e 401 921
e 574 922
e 56 922
e 574 923
e 227 923
e 577 924
e 313 924
e 577 925
e 281 925
e 580 926
e 186 926
e 580 927
e 286 927
e 583 928
e 439 928
e 583 929
e 508 929
e 583 930
e 234 930
e 583 931
e 511 931
e 588 932
e 318 932
e 588 933
e 421 933
e 591 934
e 359 934
e 591 935
e 290 935
e 591 936
e 363 936
e 591 937
e 293 937
e 591 938
e 31 938
e 591 939
e 327 939
e 598 940
e 79 940
e 598 941
e 135 941
e 601 942
e 208 942
e 601 943
e 405 943
e 604 944
e 213 944
e 604 945
e 221 945
e 242 946
e 245 946
e 242 947
e 203 947
e 609 948
e 552 948
e 609 949
e 149 949
e 559 950
e 409 950
e 409 951
e 212 951
e 212 952
e 213 952
e 213 953
e 221 953
e 221 954
e 222 954
e 222 955
e 231 955
e 231 956
e 439 956
e 439 957
e 508 957
e 508 958
e 484 958
e 484 959
e 358 959
e 358 960
e 359 960
e 359 961
e 290 961
e 290 962
e 253 962
e 253 963
e 254 963
e 254 964
e 498 964
e 498 965
e 301 965
e 301 966
e 128 966
e 128 967
e 60 967
e 60 968
e 61 968
e 61 969
e 154 969
e 154 970
e 155 970
e 155 971
e 109 971
e 109 972
e 110 972
e 110 973
e 262 973
e 262 974
e 7 974
e 7 975
e 8 975
e 8 976
e 16 976
e 16 977
e 172 977
e 172 978
e 245 978
e 245 979
e 203 979
e 203 980
e 204 980
e 204 981
e 25 981
e 25 982
e 26 982
e 394 983
e 276 983
e 276 984
e 277 984
e 277 985
e 271 985
e 271 986
e 272 986
e 272 987
e 139 987
e 139 988
e 140 988
e 140 989
e 83 989
e 83 990
e 84 990
e 84 991
e 144 991
e 144 992
e 145 992
e 145 993
e 331 993
e 331 994
e 354 994
e 354 995
e 123 995
e 123 996
e 124 996
e 124 997
e 480 997
e 480 998
e 343 998
e 343 999
e 312 999
e 313 1000
e 281 1000
e 281 1001
e 40 1001
e 40 1002
e 41 1002
e 41 1003
e 418 1003
e 418 1004
e 451 1004
e 451 1005
e 322 1005
e 322 1006
e 323 1006
e 323 1007
e 335 1007
e 335 1008
e 297 1008
e 297 1009
e 119 1009
e 562 1010
e 412 1010
e 412 1011
e 216 1011
e 216 1012
e 217 1012
e 217 1013
e 234 1013
e 234 1014
e 511 1014
e 511 1015
e 487 1015
e 487 1016
e 362 1016
e 362 1017
e 363 1017
e 363 1018
e 293 1018
e 293 1019
e 257 1019
e 257 1020
e 258 1020
e 258 1021
e 304 1021
e 304 1022
e 131 1022
e 131 1023
e 64 1023
e 64 1024
e 65 1024
e 65 1025
e 158 1025
e 158 1026
e 113 1026
e 113 1027
e 114 1027
e 114 1028
e 265 1028
e 265 1029
e 175 1029
e 175 1030
e 176 1030
e 529 1031
e 308 1031
e 308 1032
e 2 1032
e 2 1033
e 3 1033
e 3 1034
e 88 1034
e 88 1035
e 69 1035
e 69 1036
e 70 1036
e 162 1037
e 163 1037
e 163 1038
e 427 1038
e 427 1039
e 167 1039
e 167 1040
e 168 1040
e 168 1041
e 208 1041
e 208 1042
e 405 1042
e 405 1043
e 380 1043
e 380 1044
e 381 1044
e 381 1045
e 457 1045
e 457 1046
e 30 1046
e 30 1047
e 31 1047
e 31 1048
e 327 1048
e 327 1049
e 101 1049
e 101 1050
e 74 1050
e 74 1051
e 75 1051
e 75 1052
e 248 1052
e 248 1053
e 249 1053
e 249 1054
e 465 1054
e 465 1055
e 466 1055
e 466 1056
e 371 1056
e 371 1057
e 237 1057
e 237 1058
e 238 1058
e 238 1059
e 375 1059
e 375 1060
e 376 1060
e 376 1061
e 385 1061
e 385 1062
e 45 1062
e 45 1063
e 46 1063
e 46 1064
e 317 1064
e 317 1065
e 318 1065
e 318 1066
e 421 1066
e 421 1067
e 190 1067
e 190 1068
e 191 1068
e 191 1069
e 476 1069
e 476 1070
e 50 1070
e 50 1071
e 51 1071
e 51 1072
e 183 1072
e 183 1073
e 431 1073
e 431 1074
e 490 1074
e 490 1075
e 552 1075
e 552 1076
e 149 1076
e 149 1077
e 150 1077
e 150 1078
e 339 1078
e 35 1079
e 36 1079
e 36 1080
e 461 1080
e 461 1081
e 96 1081
e 96 1082
e 97 1082
e 97 1083
e 347 1083
e 347 1084
e 367 1084
e 367 1085
e 104 1085
e 104 1086
e 105 1086
e 105 1087
e 186 1087
e 186 1088
e 286 1088
e 533 1089
e 198 1089
e 198 1090
e 199 1090
e 199 1091
e 401 1091
e 401 1092
e 78 1092
e 78 1093
e 79 1093
e 79 1094
e 135 1094
e 135 1095
e 11 1095
e 11 1096
e 12 1096
e 12 1097
e 55 1097
e 55 1098
e 56 1098
e 56 1099
e 227 1099
